#ATOM/BOND/ANGLE lists used for generating force field;

pair_style      cg/cmm 15.0
bond_style      harmonic
angle_style     harmonic
special_bonds  lj       0.0 0.0 1.0

mass    1       #    1
mass    2       #    2
mass    3       #    3
mass    4       #    5
mass    5       #    4
mass    6       #    6
mass    7       #    7

bond_coeff    1     #    1    2
bond_coeff    2     #    2    2
bond_coeff    3     #    2    3
bond_coeff    4     #    3    5
bond_coeff    5     #    4    5
bond_coeff    6     #    3    3
bond_coeff    7     #    3    6
bond_coeff    8     #    4    6
bond_coeff    9     #    5    6
bond_coeff   10     #    3    7
bond_coeff   11     #    4    7
bond_coeff   12     #    6    7

angle_coeff    1     #    2    2    2
angle_coeff    2     #    2    2    3
angle_coeff    3     #    4    5    4
angle_coeff    4     #    2    3    3
angle_coeff    5     #    4    6    4
angle_coeff    6     #    3    3    3
angle_coeff    7     #    4    7    4
angle_coeff    8     #    5    6    7
angle_coeff    9     #    4    7    6
